h = 16;
w = 16;
n_pieces = 10;
n_shapes = 19;
shape = [{1}, {2}, {3}, {4}, {5}, {6}, {7}, {8}, {9}, {10}, {11}, {12}, {13}, {14}, {15}, {16}, {17}, {18}, {19}];
shape_index = [{1}, {2, 3}, {4, 5}, {6, 7}, {8, 9}, {10, 11}, {12, 13}, {14, 15}, {16, 17}, {18, 19}];
rect_rep = [1, 1, 1, 1, 1, 1, 1, 1, 1, 1];
rect_copies = 10;
coordinate_shapes = [0, 1, 2, 3, 4, 5, 6, 7, 8, 9];
rect_size = [|3, 3
|3, 4
|4, 3
|3, 5
|5, 3
|3, 6
|6, 3
|3, 7
|7, 3
|3, 8
|8, 3
|3, 10
|10, 3
|3, 12
|12, 3
|4, 7
|7, 4
|7, 9
|9, 7
|];
rect_offset = [|0, 0
|0, 0
|0, 0
|0, 0
|0, 0
|0, 0
|0, 0
|0, 0
|0, 0
|0, 0
|0, 0
|0, 0
|0, 0
|0, 0
|0, 0
|0, 0
|0, 0
|0, 0
|0, 0
|];
rectangles = [|3, 3
|3, 4
|3, 5
|3, 6
|3, 7
|3, 8
|3, 10
|3, 12
|4, 7
|7, 9
|];
